
******************************************************************************
This program contains Ipopt, a library for large-scale nonlinear optimization.
 Ipopt is released as open source code under the Eclipse Public License (EPL).
         For more information visit http://projects.coin-or.org/Ipopt

This version of Ipopt was compiled from source code available at
    https://github.com/IDAES/Ipopt as part of the Institute for the Design of
    Advanced Energy Systems Process Systems Engineering Framework (IDAES PSE
    Framework) Copyright (c) 2018-2019. See https://github.com/IDAES/idaes-pse.

This version of Ipopt was compiled using HSL, a collection of Fortran codes
    for large-scale scientific computation.  All technical papers, sales and
    publicity material resulting from use of the HSL codes within IPOPT must
    contain the following acknowledgement:
        HSL, a collection of Fortran codes for large-scale scientific
        computation. See http://www.hsl.rl.ac.uk.
******************************************************************************

This is Ipopt version 3.13.2, running with linear solver ma27.

Number of nonzeros in equality constraint Jacobian...:      808
Number of nonzeros in inequality constraint Jacobian.:        0
Number of nonzeros in Lagrangian Hessian.............:      702

Total number of variables............................:      351
                     variables with only lower bounds:      108
                variables with lower and upper bounds:      189
                     variables with only upper bounds:        0
Total number of equality constraints.................:      350
Total number of inequality constraints...............:        0
        inequality constraints with only lower bounds:        0
   inequality constraints with lower and upper bounds:        0
        inequality constraints with only upper bounds:        0

iter    objective    inf_pr   inf_du lg(mu)  ||d||  lg(rg) alpha_du alpha_pr  ls
   0  0.0000000e+00 4.42e-01 1.33e-15  -1.0 0.00e+00    -  0.00e+00 0.00e+00   0
   1  3.2601442e-01 3.84e-01 1.29e+03  -1.0 2.59e+05    -  6.93e-01 1.35e-01h  1
   2  3.8216713e-01 3.79e-01 1.35e+03  -1.0 2.81e+05    -  7.18e-01 1.27e-02h  1
   3  2.3308679e+01 5.96e-02 1.14e+04  -1.0 2.85e+05    -  7.24e-01 9.90e-01h  1
   4  3.1101482e+01 2.32e-03 2.73e+02  -1.0 5.08e+04    -  9.43e-01 9.90e-01h  1
   5  3.1380405e+01 2.59e-05 2.40e+00  -1.0 1.77e+03    -  9.90e-01 9.90e-01h  1
   6  3.1381315e+01 2.55e-05 1.14e+07  -1.0 7.17e+02    -  9.90e-01 1.55e-02f  7
   7  3.1384912e+01 2.47e-05 2.25e+07  -1.0 1.46e+03    -  9.90e-01 3.09e-02f  6
   8  3.1498244e+01 8.20e-05 3.47e+05  -1.0 1.44e+03    -  1.00e+00 9.90e-01H  1
   9  3.1497966e+01 8.10e-07 1.23e+07  -1.0 3.95e+00    -  1.00e+00 9.90e-01h  1
iter    objective    inf_pr   inf_du lg(mu)  ||d||  lg(rg) alpha_du alpha_pr  ls
  10  3.1497966e+01 8.10e-09 1.23e+09  -1.0 1.22e-02    -  1.00e+00 9.90e-01h  1
  11  3.1497966e+01 8.08e-11 1.23e+11  -1.0 1.22e-04    -  1.00e+00 9.90e-01h  1
In iteration 11, 27 Slacks too small, adjusting variable bounds
  12  3.1497966e+01 2.64e-12 1.23e+13  -1.0 1.28e-06    -  1.00e+00 9.90e-01h  1
  13  3.1497966e+01 1.27e-12 1.19e-01  -1.0 4.18e-07    -  1.00e+00 1.00e+00h  1
  14  3.1497965e+01 2.18e-12 1.25e+13  -9.0 1.71e+03    -  9.98e-01 3.28e-06f 19
  15  3.1497962e+01 1.76e-12 1.25e+13  -9.0 1.47e+03    -  9.99e-01 3.05e-05f 16
  16  3.1497958e+01 1.82e-12 1.25e+13  -9.0 1.47e+03    -  1.00e+00 3.05e-05f 16
  17  3.1497957e+01 1.70e-12 1.25e+13  -9.0 1.47e+03    -  1.00e+00 7.63e-06f 18
  18  3.1497954e+01 2.73e-12 1.25e+13  -9.0 1.47e+03    -  1.00e+00 3.05e-05f 16
  19  3.1383388e+01 9.81e-04 2.78e+06  -9.0 1.47e+03    -  1.00e+00 1.00e+00f  1
iter    objective    inf_pr   inf_du lg(mu)  ||d||  lg(rg) alpha_du alpha_pr  ls
  20  3.1382135e+01 4.60e-09 3.46e-04  -9.0 1.53e+01    -  1.00e+00 1.00e+00h  1
  21  3.1382135e+01 2.41e-12 1.46e-11  -9.0 1.64e-04    -  1.00e+00 1.00e+00h  1

Number of Iterations....: 21

                                   (scaled)                 (unscaled)
Objective...............:   3.1382134987362342e+01    3.1382134987362342e+01
Dual infeasibility......:   1.4551915228366852e-11    1.4551915228366852e-11
Constraint violation....:   2.4122925879055401e-12    2.4122925879055401e-12
Complementarity.........:   9.0909093908766596e-10    9.0909093908766596e-10
Overall NLP error.......:   1.4524952357266760e-11    9.0909093908766596e-10


Number of objective function evaluations             = 136
Number of objective gradient evaluations             = 22
Number of equality constraint evaluations            = 136
Number of inequality constraint evaluations          = 0
Number of equality constraint Jacobian evaluations   = 22
Number of inequality constraint Jacobian evaluations = 0
Number of Lagrangian Hessian evaluations             = 21
Total CPU secs in IPOPT (w/o function evaluations)   =      0.060
Total CPU secs in NLP function evaluations           =      1.237

EXIT: Optimal Solution Found.
